problem_generation/data/GISP/train/er_n=67_m=1357_p=0.60_SET2_setparam=100.00_alpha=0.50_553.lp
maximize
OBJ:100x0 + 100x1 + 100x2 + 100x3 + 100x4 + 100x5 + 100x6 + 100x7 + 100x8 + 100x9 + 100x10 + 100x11 + 100x12 + 100x13 + 100x14 + 100x15 + 100x16 + 100x17 + 100x18 + 100x19 + 100x20 + 100x21 + 100x22 + 100x23 + 100x24 + 100x25 + 100x26 + 100x27 + 100x28 + 100x29 + 100x30 + 100x31 + 100x32 + 100x33 + 100x34 + 100x35 + 100x36 + 100x37 + 100x38 + 100x39 + 100x40 + 100x41 + 100x42 + 100x43 + 100x44 + 100x45 + 100x46 + 100x47 + 100x48 + 100x49 + 100x50 + 100x51 + 100x52 + 100x53 + 100x54 + 100x55 + 100x56 + 100x57 + 100x58 + 100x59 + 100x60 + 100x61 + 100x62 + 100x63 + 100x64 + 100x65 + 100x66 - y36_53 - y15_30 - y26_30 - y36_62 - y7_35 - y40_41 - y48_54 - y40_50 - y29_59 - y21_64 - y41_51 - y33_56 - y25_52 - y3_15 - y14_24 - y32_60 - y22_37 - y22_46 - y13_65 - y3_42 - y14_42 - y15_16 - y36_48 - y47_48 - y15_25 - y17_44 - y7_21 - y18_21 - y28_53 - y9_49 - y28_62 - y40_45 - y21_50 - y21_59 - y10_31 - y2_27 - y54_65 - y2_36 - y3_10 - y22_23 - y3_19 - y14_19 - y13_51 - y14_28 - y32_64 - y43_64 - y14_37 - y5_46 - y28_48 - y17_57 - y6_29 - y29_40 - y21_45 - y6_65 - y39_62 - y54_60 - y10_35 - y32_41 - y51_54 - y32_50 - y22_27 - y24_46 - y14_23 - y1_53 - y14_32 - y7_11 - y47_56 - y9_39 - y28_52 - y58_62 - y9_57 - y29_44 - y21_49 - y20_53 - y54_55 - y10_30 - y39_66 - y10_39 - y12_58 - y23_58 - y2_35 - y3_9 - y43_45 - y51_58 - y3_18 - y24_50 - y35_50 - y13_59 - y16_55 - y16_64 - y5_27 - y9_25 - y28_38 - y9_43 - y50_53 - y6_28 - y58_66 - y21_26 - y27_60 - y42_58 - y2_21 - y2_30 - y24_36 - y16_32 - y13_45 - y24_45 - y35_45 - y17_24 - y46_60 - y5_31 - y17_33 - y9_29 - y49_65 - y5_40 - y17_42 - y5_49 - y6_23 - y27_55 - y8_51 - y42_53 - y30_60 - y31_34 - y2_7 - y39_56 - y39_65 - y23_48 - y20_61 - y4_44 - y13_22 - y12_66 - y1_29 - y32_44 - y16_27 - y24_40 - y43_53 - y1_56 - y38_51 - y17_28 - y7_63 - y6_9 - y6_18 - y8_46 - y50_61 - y19_55 - y0_51 - y19_64 - y30_64 - y39_42 - y12_34 - y31_47 - y23_43 - y20_56 - y1_15 - y4_48 - y23_61 - y13_26 - y24_26 - y53_62 - y34_58 - y13_35 - y13_44 - y1_51 - y16_49 - y17_23 - y26_53 - y15_62 - y26_62 - y38_64 - y7_58 - y49_64 - y19_32 - y8_41 - y19_41 - y42_43 - y11_37 - y50_56 - y30_50 - y19_59 - y30_59 - y42_61 - y31_42 - y4_34 - y12_47 - y12_56 - y1_19 - y13_21 - y23_56 - y45_53 - y53_57 - y53_66 - y4_61 - y45_62 - y38_50 - y49_50 - y5_25 - y57_63 - y18_53 - y7_62 - y8_27 - y27_40 - y50_51 - y11_32 - y30_45 - y42_47 - y8_54 - y42_56 - y60_64 - y11_59 - y23_24 - y39_41 - y20_37 - y41_60 - y23_33 - y4_29 - y33_65 - y44_65 - y1_5 - y34_39 - y1_14 - y4_47 - y53_61 - y34_57 - y1_32 - y3_51 - y34_66 - y3_60 - y37_62 - y46_49 - y26_43 - y46_58 - y15_52 - y38_54 - y49_54 - y49_63 - y19_22 - y27_35 - y0_18 - y7_66 - y8_31 - y18_66 - y27_44 - y11_27 - y27_53 - y8_49 - y19_49 - y30_49 - y0_45 - y20_23 - y4_15 - y52_64 - y33_60 - y23_37 - y25_56 - y22_41 - y22_50 - y64_65 - y22_59 - y3_55 - y15_20 - y3_64 - y37_66 - y7_25 - y18_25 - y7_34 - y0_4 - y8_17 - y18_61 - y8_26 - y48_62 - y11_22 - y29_58 - y19_35 - y30_35 - y11_31 - y30_44 - y0_40 - y11_49 - y41_50 - y33_46 - y52_59 - y44_64 - y1_4 - y45_47 - y14_41 - y37_43 - y22_54 - y14_50 - y7_20 - y15_42 - y15_51 - y26_51 - y8_21 - y48_57 - y0_17 - y8_30 - y40_62 - y0_35 - y4_5 - y10_48 - y33_50 - y52_63 - y33_59 - y2_62 - y22_58 - y3_54 - y15_19 - y37_56 - y3_63 - y59_62 - y26_37 - y7_33 - y26_46 - y0_3 - y29_39 - y8_16 - y48_52 - y11_21 - y29_57 - y40_57 - y40_66 - y21_62 - y4_9 - y10_43 - y41_58 - y25_41 - y10_52 - y33_54 - y3_13 - y44_63 - y51_62 - y25_59 - y37_42 - y7_19 - y36_55 - y26_32 - y7_28 - y47_64 - y17_60 - y28_60 - y7_37 - y9_56 - y21_39 - y40_52 - y21_66 - y41_44 - y2_25 - y25_27 - y10_38 - y2_34 - y33_49 - y25_45 - y10_56 - y2_52 - y14_17 - y25_54 - y2_61 - y13_58 - y24_58 - y3_35 - y15_18 - y36_50 - y28_46 - y18_23 - y0_2 - y29_38 - y6_45 - y29_47 - y29_56 - y21_61 - y54_58 - y33_35 - y2_29 - y25_31 - y10_51 - y2_47 - y32_48 - y22_25 - y32_57 - y16_58 - y47_54 - y9_37 - y17_50 - y36_63 - y6_22 - y29_42 - y29_51 - y21_47 - y39_55 - y2_15 - y39_64 - y2_24 - y20_60 - y10_37 - y25_26 - y54_62 - y25_35 - y2_42 - y24_39 - y14_16 - y13_48 - y3_25 - y14_25 - y16_44 - y13_57 - y43_61 - y13_66 - y35_66 - y5_34 - y28_36 - y47_49 - y9_32 - y6_8 - y5_52 - y6_17 - y28_54 - y5_61 - y58_64 - y20_46 - y10_23 - y20_55 - y31_55 - y54_57 - y54_66 - y3_11 - y4_65 - y43_56 - y1_50 - y24_52 - y13_61 - y9_18 - y17_31 - y17_49 - y28_49 - y6_30 - y50_64 - y61_64 - y6_39 - y0_63 - y39_45 - y2_5 - y20_41 - y10_18 - y2_14 - y31_50 - y39_63 - y12_46 - y54_61 - y4_42 - y23_55 - y1_27 - y24_29 - y4_60 - y16_25 - y32_42 - y32_51 - y16_34 - y43_51 - y1_45 - y13_56 - y5_15 - y46_53 - y65_66 - y36_39 - y17_35 - y9_31 - y15_65 - y5_42 - y28_44 - y27_48 - y58_63 - y42_46 - y21_23 - y30_53 - y27_66 - y30_62 - y20_27 - y0_58 - y39_40 - y20_36 - y31_36 - y39_49 - y12_32 - y2_18 - y20_54 - y31_54 - y12_59 - y32_37 - y16_20 - y1_31 - y32_46 - y34_65 - y1_40 - y13_42 - y16_47 - y38_44 - y5_19 - y17_30 - y7_65 - y18_65 - y6_20 - y8_39 - y30_39 - y27_52 - y30_57 - y20_40 - y12_36 - y4_32 - y1_8 - y20_58 - y23_63 - y24_28 - y45_60 - y56_60 - y1_44 - y16_42 - y38_39 - y9_12 - y38_48 - y5_23 - y15_55 - y26_55 - y5_32 - y38_57 - y38_66 - y27_29 - y7_60 - y8_25 - y18_60 - y19_34 - y0_30 - y30_52 - y42_54 - y12_13 - y8_61 - y20_26 - y11_57 - y31_35 - y12_31 - y23_31 - y20_44 - y31_44 - y23_49 - y1_12 - y13_14 - y4_45 - y34_46 - y45_46 - y53_59 - y4_54 - y45_55 - y37_51 - y14_58 - y5_9 - y26_41 - y9_16 - y26_50 - y46_65 - y49_52 - y7_64 - y8_29 - y19_29 - y11_25 - y19_38 - y11_43 - y8_56 - y19_56 - y41_53 - y12_26 - y23_26 - y41_62 - y4_22 - y33_58 - y10_65 - y23_44 - y1_7 - y16_23 - y22_57 - y45_59 - y3_53 - y56_59 - y26_27 - y18_32 - y15_45 - y38_47 - y7_41 - y26_54 - y8_15 - y27_28 - y18_59 - y8_24 - y8_33 - y0_29 - y11_29 - y29_65 - y0_38 - y19_51 - y41_48 - y20_25 - y44_53 - y23_30 - y41_66 - y52_66 - y33_62 - y25_58 - y22_34 - y1_20 - y37_41 - y53_58 - y22_52 - y34_54 - y3_48 - y14_48 - y22_61 - y14_57 - y37_59 - y3_66 - y7_27 - y26_40 - y26_49 - y7_45 - y18_45 - y18_54 - y48_55 - y0_15 - y48_64 - y0_24 - y11_24 - y19_37 - y29_60 - y21_65 - y0_42 - y4_12 - y10_55 - y33_57 - y44_57 - y2_51 - y25_53 - y10_64 - y44_66 - y3_34 - y45_49 - y37_45 - y45_58 - y14_52 - y15_17 - y37_54 - y55_62 - y18_31 - y7_40 - y0_1 - y7_49 - y40_46 - y19_23 - y6_53 - y29_55 - y40_55 - y6_62 - y40_64 - y52_56 - y25_39 - y10_50 - y25_48 - y33_61 - y2_55 - y3_20 - y2_64 - y25_66 - y22_51 - y3_47
 Subject to
C1: x0+x1-y0_1 <=1 
C2: x0+x2-y0_2 <=1 
C3: x0+x3-y0_3 <=1 
C4: x0+x4-y0_4 <=1 
C5: x0+x6 <=1 
C6: x0+x10 <=1 
C7: x0+x13 <=1 
C8: x0+x14 <=1 
C9: x0+x15-y0_15 <=1 
C10: x0+x17-y0_17 <=1 
C11: x0+x18-y0_18 <=1 
C12: x0+x19 <=1 
C13: x0+x20 <=1 
C14: x0+x24-y0_24 <=1 
C15: x0+x26 <=1 
C16: x0+x27 <=1 
C17: x0+x28 <=1 
C18: x0+x29-y0_29 <=1 
C19: x0+x30-y0_30 <=1 
C20: x0+x32 <=1 
C21: x0+x35-y0_35 <=1 
C22: x0+x36 <=1 
C23: x0+x37 <=1 
C24: x0+x38-y0_38 <=1 
C25: x0+x40-y0_40 <=1 
C26: x0+x42-y0_42 <=1 
C27: x0+x45-y0_45 <=1 
C28: x0+x48 <=1 
C29: x0+x51-y0_51 <=1 
C30: x0+x56 <=1 
C31: x0+x57 <=1 
C32: x0+x58-y0_58 <=1 
C33: x0+x60 <=1 
C34: x0+x62 <=1 
C35: x0+x63-y0_63 <=1 
C36: x0+x65 <=1 
C37: x0+x66 <=1 
C38: x1+x2 <=1 
C39: x1+x3 <=1 
C40: x1+x4-y1_4 <=1 
C41: x1+x5-y1_5 <=1 
C42: x1+x6 <=1 
C43: x1+x7-y1_7 <=1 
C44: x1+x8-y1_8 <=1 
C45: x1+x12-y1_12 <=1 
C46: x1+x13 <=1 
C47: x1+x14-y1_14 <=1 
C48: x1+x15-y1_15 <=1 
C49: x1+x19-y1_19 <=1 
C50: x1+x20-y1_20 <=1 
C51: x1+x26 <=1 
C52: x1+x27-y1_27 <=1 
C53: x1+x28 <=1 
C54: x1+x29-y1_29 <=1 
C55: x1+x31-y1_31 <=1 
C56: x1+x32-y1_32 <=1 
C57: x1+x33 <=1 
C58: x1+x35 <=1 
C59: x1+x38 <=1 
C60: x1+x39 <=1 
C61: x1+x40-y1_40 <=1 
C62: x1+x41 <=1 
C63: x1+x43 <=1 
C64: x1+x44-y1_44 <=1 
C65: x1+x45-y1_45 <=1 
C66: x1+x47 <=1 
C67: x1+x50-y1_50 <=1 
C68: x1+x51-y1_51 <=1 
C69: x1+x53-y1_53 <=1 
C70: x1+x56-y1_56 <=1 
C71: x1+x59 <=1 
C72: x1+x60 <=1 
C73: x1+x65 <=1 
C74: x1+x66 <=1 
C75: x2+x3 <=1 
C76: x2+x5-y2_5 <=1 
C77: x2+x6 <=1 
C78: x2+x7-y2_7 <=1 
C79: x2+x10 <=1 
C80: x2+x11 <=1 
C81: x2+x12 <=1 
C82: x2+x13 <=1 
C83: x2+x14-y2_14 <=1 
C84: x2+x15-y2_15 <=1 
C85: x2+x18-y2_18 <=1 
C86: x2+x19 <=1 
C87: x2+x20 <=1 
C88: x2+x21-y2_21 <=1 
C89: x2+x24-y2_24 <=1 
C90: x2+x25-y2_25 <=1 
C91: x2+x26 <=1 
C92: x2+x27-y2_27 <=1 
C93: x2+x28 <=1 
C94: x2+x29-y2_29 <=1 
C95: x2+x30-y2_30 <=1 
C96: x2+x34-y2_34 <=1 
C97: x2+x35-y2_35 <=1 
C98: x2+x36-y2_36 <=1 
C99: x2+x38 <=1 
C100: x2+x39 <=1 
C101: x2+x41 <=1 
C102: x2+x42-y2_42 <=1 
C103: x2+x43 <=1 
C104: x2+x44 <=1 
C105: x2+x45 <=1 
C106: x2+x46 <=1 
C107: x2+x47-y2_47 <=1 
C108: x2+x48 <=1 
C109: x2+x49 <=1 
C110: x2+x50 <=1 
C111: x2+x51-y2_51 <=1 
C112: x2+x52-y2_52 <=1 
C113: x2+x55-y2_55 <=1 
C114: x2+x58 <=1 
C115: x2+x59 <=1 
C116: x2+x61-y2_61 <=1 
C117: x2+x62-y2_62 <=1 
C118: x2+x64-y2_64 <=1 
C119: x3+x4 <=1 
C120: x3+x9-y3_9 <=1 
C121: x3+x10-y3_10 <=1 
C122: x3+x11-y3_11 <=1 
C123: x3+x13-y3_13 <=1 
C124: x3+x15-y3_15 <=1 
C125: x3+x17 <=1 
C126: x3+x18-y3_18 <=1 
C127: x3+x19-y3_19 <=1 
C128: x3+x20-y3_20 <=1 
C129: x3+x25-y3_25 <=1 
C130: x3+x30 <=1 
C131: x3+x32 <=1 
C132: x3+x33 <=1 
C133: x3+x34-y3_34 <=1 
C134: x3+x35-y3_35 <=1 
C135: x3+x39 <=1 
C136: x3+x42-y3_42 <=1 
C137: x3+x44 <=1 
C138: x3+x47-y3_47 <=1 
C139: x3+x48-y3_48 <=1 
C140: x3+x49 <=1 
C141: x3+x50 <=1 
C142: x3+x51-y3_51 <=1 
C143: x3+x53-y3_53 <=1 
C144: x3+x54-y3_54 <=1 
C145: x3+x55-y3_55 <=1 
C146: x3+x60-y3_60 <=1 
C147: x3+x61 <=1 
C148: x3+x62 <=1 
C149: x3+x63-y3_63 <=1 
C150: x3+x64-y3_64 <=1 
C151: x3+x66-y3_66 <=1 
C152: x4+x5-y4_5 <=1 
C153: x4+x8 <=1 
C154: x4+x9-y4_9 <=1 
C155: x4+x11 <=1 
C156: x4+x12-y4_12 <=1 
C157: x4+x14 <=1 
C158: x4+x15-y4_15 <=1 
C159: x4+x20 <=1 
C160: x4+x21 <=1 
C161: x4+x22-y4_22 <=1 
C162: x4+x24 <=1 
C163: x4+x25 <=1 
C164: x4+x28 <=1 
C165: x4+x29-y4_29 <=1 
C166: x4+x31 <=1 
C167: x4+x32-y4_32 <=1 
C168: x4+x34-y4_34 <=1 
C169: x4+x35 <=1 
C170: x4+x38 <=1 
C171: x4+x39 <=1 
C172: x4+x42-y4_42 <=1 
C173: x4+x43 <=1 
C174: x4+x44-y4_44 <=1 
C175: x4+x45-y4_45 <=1 
C176: x4+x47-y4_47 <=1 
C177: x4+x48-y4_48 <=1 
C178: x4+x50 <=1 
C179: x4+x52 <=1 
C180: x4+x54-y4_54 <=1 
C181: x4+x60-y4_60 <=1 
C182: x4+x61-y4_61 <=1 
C183: x4+x65-y4_65 <=1 
C184: x5+x7 <=1 
C185: x5+x8 <=1 
C186: x5+x9-y5_9 <=1 
C187: x5+x10 <=1 
C188: x5+x15-y5_15 <=1 
C189: x5+x16 <=1 
C190: x5+x17 <=1 
C191: x5+x19-y5_19 <=1 
C192: x5+x20 <=1 
C193: x5+x22 <=1 
C194: x5+x23-y5_23 <=1 
C195: x5+x24 <=1 
C196: x5+x25-y5_25 <=1 
C197: x5+x27-y5_27 <=1 
C198: x5+x29 <=1 
C199: x5+x31-y5_31 <=1 
C200: x5+x32-y5_32 <=1 
C201: x5+x34-y5_34 <=1 
C202: x5+x35 <=1 
C203: x5+x36 <=1 
C204: x5+x37 <=1 
C205: x5+x38 <=1 
C206: x5+x40-y5_40 <=1 
C207: x5+x41 <=1 
C208: x5+x42-y5_42 <=1 
C209: x5+x46-y5_46 <=1 
C210: x5+x49-y5_49 <=1 
C211: x5+x50 <=1 
C212: x5+x52-y5_52 <=1 
C213: x5+x55 <=1 
C214: x5+x56 <=1 
C215: x5+x57 <=1 
C216: x5+x59 <=1 
C217: x5+x60 <=1 
C218: x5+x61-y5_61 <=1 
C219: x6+x8-y6_8 <=1 
C220: x6+x9-y6_9 <=1 
C221: x6+x10 <=1 
C222: x6+x11 <=1 
C223: x6+x12 <=1 
C224: x6+x13 <=1 
C225: x6+x14 <=1 
C226: x6+x17-y6_17 <=1 
C227: x6+x18-y6_18 <=1 
C228: x6+x19 <=1 
C229: x6+x20-y6_20 <=1 
C230: x6+x22-y6_22 <=1 
C231: x6+x23-y6_23 <=1 
C232: x6+x24 <=1 
C233: x6+x26 <=1 
C234: x6+x28-y6_28 <=1 
C235: x6+x29-y6_29 <=1 
C236: x6+x30-y6_30 <=1 
C237: x6+x34 <=1 
C238: x6+x35 <=1 
C239: x6+x37 <=1 
C240: x6+x39-y6_39 <=1 
C241: x6+x41 <=1 
C242: x6+x44 <=1 
C243: x6+x45-y6_45 <=1 
C244: x6+x49 <=1 
C245: x6+x50 <=1 
C246: x6+x53-y6_53 <=1 
C247: x6+x57 <=1 
C248: x6+x58 <=1 
C249: x6+x61 <=1 
C250: x6+x62-y6_62 <=1 
C251: x6+x63 <=1 
C252: x6+x65-y6_65 <=1 
C253: x7+x10 <=1 
C254: x7+x11-y7_11 <=1 
C255: x7+x12 <=1 
C256: x7+x13 <=1 
C257: x7+x15 <=1 
C258: x7+x18 <=1 
C259: x7+x19-y7_19 <=1 
C260: x7+x20-y7_20 <=1 
C261: x7+x21-y7_21 <=1 
C262: x7+x25-y7_25 <=1 
C263: x7+x26 <=1 
C264: x7+x27-y7_27 <=1 
C265: x7+x28-y7_28 <=1 
C266: x7+x29 <=1 
C267: x7+x32 <=1 
C268: x7+x33-y7_33 <=1 
C269: x7+x34-y7_34 <=1 
C270: x7+x35-y7_35 <=1 
C271: x7+x37-y7_37 <=1 
C272: x7+x40-y7_40 <=1 
C273: x7+x41-y7_41 <=1 
C274: x7+x42 <=1 
C275: x7+x44 <=1 
C276: x7+x45-y7_45 <=1 
C277: x7+x46 <=1 
C278: x7+x49-y7_49 <=1 
C279: x7+x50 <=1 
C280: x7+x51 <=1 
C281: x7+x53 <=1 
C282: x7+x54 <=1 
C283: x7+x55 <=1 
C284: x7+x56 <=1 
C285: x7+x57 <=1 
C286: x7+x58-y7_58 <=1 
C287: x7+x59 <=1 
C288: x7+x60-y7_60 <=1 
C289: x7+x62-y7_62 <=1 
C290: x7+x63-y7_63 <=1 
C291: x7+x64-y7_64 <=1 
C292: x7+x65-y7_65 <=1 
C293: x7+x66-y7_66 <=1 
C294: x8+x9 <=1 
C295: x8+x13 <=1 
C296: x8+x14 <=1 
C297: x8+x15-y8_15 <=1 
C298: x8+x16-y8_16 <=1 
C299: x8+x17-y8_17 <=1 
C300: x8+x19 <=1 
C301: x8+x21-y8_21 <=1 
C302: x8+x22 <=1 
C303: x8+x24-y8_24 <=1 
C304: x8+x25-y8_25 <=1 
C305: x8+x26-y8_26 <=1 
C306: x8+x27-y8_27 <=1 
C307: x8+x28 <=1 
C308: x8+x29-y8_29 <=1 
C309: x8+x30-y8_30 <=1 
C310: x8+x31-y8_31 <=1 
C311: x8+x33-y8_33 <=1 
C312: x8+x36 <=1 
C313: x8+x37 <=1 
C314: x8+x39-y8_39 <=1 
C315: x8+x40 <=1 
C316: x8+x41-y8_41 <=1 
C317: x8+x42 <=1 
C318: x8+x46-y8_46 <=1 
C319: x8+x49-y8_49 <=1 
C320: x8+x51-y8_51 <=1 
C321: x8+x52 <=1 
C322: x8+x54-y8_54 <=1 
C323: x8+x55 <=1 
C324: x8+x56-y8_56 <=1 
C325: x8+x61-y8_61 <=1 
C326: x8+x62 <=1 
C327: x8+x65 <=1 
C328: x9+x10 <=1 
C329: x9+x12-y9_12 <=1 
C330: x9+x13 <=1 
C331: x9+x15 <=1 
C332: x9+x16-y9_16 <=1 
C333: x9+x18-y9_18 <=1 
C334: x9+x19 <=1 
C335: x9+x20 <=1 
C336: x9+x21 <=1 
C337: x9+x24 <=1 
C338: x9+x25-y9_25 <=1 
C339: x9+x28 <=1 
C340: x9+x29-y9_29 <=1 
C341: x9+x30 <=1 
C342: x9+x31-y9_31 <=1 
C343: x9+x32-y9_32 <=1 
C344: x9+x33 <=1 
C345: x9+x35 <=1 
C346: x9+x36 <=1 
C347: x9+x37-y9_37 <=1 
C348: x9+x39-y9_39 <=1 
C349: x9+x41 <=1 
C350: x9+x43-y9_43 <=1 
C351: x9+x49-y9_49 <=1 
C352: x9+x53 <=1 
C353: x9+x55 <=1 
C354: x9+x56-y9_56 <=1 
C355: x9+x57-y9_57 <=1 
C356: x9+x62 <=1 
C357: x9+x63 <=1 
C358: x9+x65 <=1 
C359: x10+x11 <=1 
C360: x10+x12 <=1 
C361: x10+x18-y10_18 <=1 
C362: x10+x20 <=1 
C363: x10+x21 <=1 
C364: x10+x23-y10_23 <=1 
C365: x10+x24 <=1 
C366: x10+x25 <=1 
C367: x10+x28 <=1 
C368: x10+x30-y10_30 <=1 
C369: x10+x31-y10_31 <=1 
C370: x10+x33 <=1 
C371: x10+x35-y10_35 <=1 
C372: x10+x37-y10_37 <=1 
C373: x10+x38-y10_38 <=1 
C374: x10+x39-y10_39 <=1 
C375: x10+x43-y10_43 <=1 
C376: x10+x45 <=1 
C377: x10+x48-y10_48 <=1 
C378: x10+x49 <=1 
C379: x10+x50-y10_50 <=1 
C380: x10+x51-y10_51 <=1 
C381: x10+x52-y10_52 <=1 
C382: x10+x55-y10_55 <=1 
C383: x10+x56-y10_56 <=1 
C384: x10+x64-y10_64 <=1 
C385: x10+x65-y10_65 <=1 
C386: x11+x13 <=1 
C387: x11+x14 <=1 
C388: x11+x15 <=1 
C389: x11+x18 <=1 
C390: x11+x21-y11_21 <=1 
C391: x11+x22-y11_22 <=1 
C392: x11+x23 <=1 
C393: x11+x24-y11_24 <=1 
C394: x11+x25-y11_25 <=1 
C395: x11+x27-y11_27 <=1 
C396: x11+x29-y11_29 <=1 
C397: x11+x31-y11_31 <=1 
C398: x11+x32-y11_32 <=1 
C399: x11+x34 <=1 
C400: x11+x37-y11_37 <=1 
C401: x11+x38 <=1 
C402: x11+x41 <=1 
C403: x11+x43-y11_43 <=1 
C404: x11+x45 <=1 
C405: x11+x47 <=1 
C406: x11+x49-y11_49 <=1 
C407: x11+x50 <=1 
C408: x11+x51 <=1 
C409: x11+x57-y11_57 <=1 
C410: x11+x58 <=1 
C411: x11+x59-y11_59 <=1 
C412: x11+x61 <=1 
C413: x12+x13-y12_13 <=1 
C414: x12+x15 <=1 
C415: x12+x16 <=1 
C416: x12+x19 <=1 
C417: x12+x20 <=1 
C418: x12+x22 <=1 
C419: x12+x23 <=1 
C420: x12+x24 <=1 
C421: x12+x26-y12_26 <=1 
C422: x12+x28 <=1 
C423: x12+x30 <=1 
C424: x12+x31-y12_31 <=1 
C425: x12+x32-y12_32 <=1 
C426: x12+x33 <=1 
C427: x12+x34-y12_34 <=1 
C428: x12+x35 <=1 
C429: x12+x36-y12_36 <=1 
C430: x12+x37 <=1 
C431: x12+x41 <=1 
C432: x12+x42 <=1 
C433: x12+x43 <=1 
C434: x12+x46-y12_46 <=1 
C435: x12+x47-y12_47 <=1 
C436: x12+x50 <=1 
C437: x12+x51 <=1 
C438: x12+x52 <=1 
C439: x12+x53 <=1 
C440: x12+x54 <=1 
C441: x12+x56-y12_56 <=1 
C442: x12+x58-y12_58 <=1 
C443: x12+x59-y12_59 <=1 
C444: x12+x61 <=1 
C445: x12+x63 <=1 
C446: x12+x66-y12_66 <=1 
C447: x13+x14-y13_14 <=1 
C448: x13+x16 <=1 
C449: x13+x18 <=1 
C450: x13+x19 <=1 
C451: x13+x21-y13_21 <=1 
C452: x13+x22-y13_22 <=1 
C453: x13+x24 <=1 
C454: x13+x26-y13_26 <=1 
C455: x13+x27 <=1 
C456: x13+x30 <=1 
C457: x13+x31 <=1 
C458: x13+x32 <=1 
C459: x13+x34 <=1 
C460: x13+x35-y13_35 <=1 
C461: x13+x38 <=1 
C462: x13+x40 <=1 
C463: x13+x42-y13_42 <=1 
C464: x13+x43 <=1 
C465: x13+x44-y13_44 <=1 
C466: x13+x45-y13_45 <=1 
C467: x13+x47 <=1 
C468: x13+x48-y13_48 <=1 
C469: x13+x49 <=1 
C470: x13+x51-y13_51 <=1 
C471: x13+x52 <=1 
C472: x13+x54 <=1 
C473: x13+x55 <=1 
C474: x13+x56-y13_56 <=1 
C475: x13+x57-y13_57 <=1 
C476: x13+x58-y13_58 <=1 
C477: x13+x59-y13_59 <=1 
C478: x13+x61-y13_61 <=1 
C479: x13+x65-y13_65 <=1 
C480: x13+x66-y13_66 <=1 
C481: x14+x16-y14_16 <=1 
C482: x14+x17-y14_17 <=1 
C483: x14+x19-y14_19 <=1 
C484: x14+x21 <=1 
C485: x14+x23-y14_23 <=1 
C486: x14+x24-y14_24 <=1 
C487: x14+x25-y14_25 <=1 
C488: x14+x26 <=1 
C489: x14+x28-y14_28 <=1 
C490: x14+x29 <=1 
C491: x14+x30 <=1 
C492: x14+x31 <=1 
C493: x14+x32-y14_32 <=1 
C494: x14+x34 <=1 
C495: x14+x37-y14_37 <=1 
C496: x14+x38 <=1 
C497: x14+x39 <=1 
C498: x14+x40 <=1 
C499: x14+x41-y14_41 <=1 
C500: x14+x42-y14_42 <=1 
C501: x14+x43 <=1 
C502: x14+x48-y14_48 <=1 
C503: x14+x50-y14_50 <=1 
C504: x14+x52-y14_52 <=1 
C505: x14+x54 <=1 
C506: x14+x57-y14_57 <=1 
C507: x14+x58-y14_58 <=1 
C508: x14+x59 <=1 
C509: x14+x61 <=1 
C510: x15+x16-y15_16 <=1 
C511: x15+x17-y15_17 <=1 
C512: x15+x18-y15_18 <=1 
C513: x15+x19-y15_19 <=1 
C514: x15+x20-y15_20 <=1 
C515: x15+x21 <=1 
C516: x15+x25-y15_25 <=1 
C517: x15+x26 <=1 
C518: x15+x28 <=1 
C519: x15+x29 <=1 
C520: x15+x30-y15_30 <=1 
C521: x15+x31 <=1 
C522: x15+x32 <=1 
C523: x15+x34 <=1 
C524: x15+x35 <=1 
C525: x15+x37 <=1 
C526: x15+x38 <=1 
C527: x15+x40 <=1 
C528: x15+x41 <=1 
C529: x15+x42-y15_42 <=1 
C530: x15+x43 <=1 
C531: x15+x44 <=1 
C532: x15+x45-y15_45 <=1 
C533: x15+x46 <=1 
C534: x15+x47 <=1 
C535: x15+x49 <=1 
C536: x15+x50 <=1 
C537: x15+x51-y15_51 <=1 
C538: x15+x52-y15_52 <=1 
C539: x15+x53 <=1 
C540: x15+x55-y15_55 <=1 
C541: x15+x58 <=1 
C542: x15+x62-y15_62 <=1 
C543: x15+x65-y15_65 <=1 
C544: x15+x66 <=1 
C545: x16+x20-y16_20 <=1 
C546: x16+x21 <=1 
C547: x16+x22 <=1 
C548: x16+x23-y16_23 <=1 
C549: x16+x25-y16_25 <=1 
C550: x16+x27-y16_27 <=1 
C551: x16+x32-y16_32 <=1 
C552: x16+x33 <=1 
C553: x16+x34-y16_34 <=1 
C554: x16+x36 <=1 
C555: x16+x37 <=1 
C556: x16+x38 <=1 
C557: x16+x41 <=1 
C558: x16+x42-y16_42 <=1 
C559: x16+x44-y16_44 <=1 
C560: x16+x45 <=1 
C561: x16+x46 <=1 
C562: x16+x47-y16_47 <=1 
C563: x16+x49-y16_49 <=1 
C564: x16+x52 <=1 
C565: x16+x53 <=1 
C566: x16+x55-y16_55 <=1 
C567: x16+x56 <=1 
C568: x16+x58-y16_58 <=1 
C569: x16+x60 <=1 
C570: x16+x61 <=1 
C571: x16+x62 <=1 
C572: x16+x63 <=1 
C573: x16+x64-y16_64 <=1 
C574: x17+x19 <=1 
C575: x17+x20 <=1 
C576: x17+x22 <=1 
C577: x17+x23-y17_23 <=1 
C578: x17+x24-y17_24 <=1 
C579: x17+x25 <=1 
C580: x17+x28-y17_28 <=1 
C581: x17+x30-y17_30 <=1 
C582: x17+x31-y17_31 <=1 
C583: x17+x33-y17_33 <=1 
C584: x17+x34 <=1 
C585: x17+x35-y17_35 <=1 
C586: x17+x37 <=1 
C587: x17+x42-y17_42 <=1 
C588: x17+x43 <=1 
C589: x17+x44-y17_44 <=1 
C590: x17+x46 <=1 
C591: x17+x47 <=1 
C592: x17+x49-y17_49 <=1 
C593: x17+x50-y17_50 <=1 
C594: x17+x51 <=1 
C595: x17+x54 <=1 
C596: x17+x56 <=1 
C597: x17+x57-y17_57 <=1 
C598: x17+x60-y17_60 <=1 
C599: x17+x63 <=1 
C600: x17+x65 <=1 
C601: x18+x19 <=1 
C602: x18+x20 <=1 
C603: x18+x21-y18_21 <=1 
C604: x18+x23-y18_23 <=1 
C605: x18+x25-y18_25 <=1 
C606: x18+x26 <=1 
C607: x18+x27 <=1 
C608: x18+x30 <=1 
C609: x18+x31-y18_31 <=1 
C610: x18+x32-y18_32 <=1 
C611: x18+x33 <=1 
C612: x18+x41 <=1 
C613: x18+x42 <=1 
C614: x18+x44 <=1 
C615: x18+x45-y18_45 <=1 
C616: x18+x49 <=1 
C617: x18+x51 <=1 
C618: x18+x52 <=1 
C619: x18+x53-y18_53 <=1 
C620: x18+x54-y18_54 <=1 
C621: x18+x58 <=1 
C622: x18+x59-y18_59 <=1 
C623: x18+x60-y18_60 <=1 
C624: x18+x61-y18_61 <=1 
C625: x18+x62 <=1 
C626: x18+x65-y18_65 <=1 
C627: x18+x66-y18_66 <=1 
C628: x19+x20 <=1 
C629: x19+x22-y19_22 <=1 
C630: x19+x23-y19_23 <=1 
C631: x19+x27 <=1 
C632: x19+x28 <=1 
C633: x19+x29-y19_29 <=1 
C634: x19+x31 <=1 
C635: x19+x32-y19_32 <=1 
C636: x19+x34-y19_34 <=1 
C637: x19+x35-y19_35 <=1 
C638: x19+x36 <=1 
C639: x19+x37-y19_37 <=1 
C640: x19+x38-y19_38 <=1 
C641: x19+x41-y19_41 <=1 
C642: x19+x42 <=1 
C643: x19+x45 <=1 
C644: x19+x46 <=1 
C645: x19+x49-y19_49 <=1 
C646: x19+x50 <=1 
C647: x19+x51-y19_51 <=1 
C648: x19+x52 <=1 
C649: x19+x54 <=1 
C650: x19+x55-y19_55 <=1 
C651: x19+x56-y19_56 <=1 
C652: x19+x58 <=1 
C653: x19+x59-y19_59 <=1 
C654: x19+x60 <=1 
C655: x19+x62 <=1 
C656: x19+x64-y19_64 <=1 
C657: x19+x65 <=1 
C658: x20+x21 <=1 
C659: x20+x22 <=1 
C660: x20+x23-y20_23 <=1 
C661: x20+x25-y20_25 <=1 
C662: x20+x26-y20_26 <=1 
C663: x20+x27-y20_27 <=1 
C664: x20+x28 <=1 
C665: x20+x29 <=1 
C666: x20+x30 <=1 
C667: x20+x31 <=1 
C668: x20+x32 <=1 
C669: x20+x33 <=1 
C670: x20+x35 <=1 
C671: x20+x36-y20_36 <=1 
C672: x20+x37-y20_37 <=1 
C673: x20+x38 <=1 
C674: x20+x39 <=1 
C675: x20+x40-y20_40 <=1 
C676: x20+x41-y20_41 <=1 
C677: x20+x43 <=1 
C678: x20+x44-y20_44 <=1 
C679: x20+x45 <=1 
C680: x20+x46-y20_46 <=1 
C681: x20+x48 <=1 
C682: x20+x49 <=1 
C683: x20+x53-y20_53 <=1 
C684: x20+x54-y20_54 <=1 
C685: x20+x55-y20_55 <=1 
C686: x20+x56-y20_56 <=1 
C687: x20+x58-y20_58 <=1 
C688: x20+x59 <=1 
C689: x20+x60-y20_60 <=1 
C690: x20+x61-y20_61 <=1 
C691: x20+x64 <=1 
C692: x21+x22 <=1 
C693: x21+x23-y21_23 <=1 
C694: x21+x25 <=1 
C695: x21+x26-y21_26 <=1 
C696: x21+x27 <=1 
C697: x21+x28 <=1 
C698: x21+x30 <=1 
C699: x21+x35 <=1 
C700: x21+x36 <=1 
C701: x21+x38 <=1 
C702: x21+x39-y21_39 <=1 
C703: x21+x41 <=1 
C704: x21+x45-y21_45 <=1 
C705: x21+x47-y21_47 <=1 
C706: x21+x48 <=1 
C707: x21+x49-y21_49 <=1 
C708: x21+x50-y21_50 <=1 
C709: x21+x51 <=1 
C710: x21+x52 <=1 
C711: x21+x54 <=1 
C712: x21+x57 <=1 
C713: x21+x58 <=1 
C714: x21+x59-y21_59 <=1 
C715: x21+x61-y21_61 <=1 
C716: x21+x62-y21_62 <=1 
C717: x21+x64-y21_64 <=1 
C718: x21+x65-y21_65 <=1 
C719: x21+x66-y21_66 <=1 
C720: x22+x23-y22_23 <=1 
C721: x22+x24 <=1 
C722: x22+x25-y22_25 <=1 
C723: x22+x27-y22_27 <=1 
C724: x22+x30 <=1 
C725: x22+x34-y22_34 <=1 
C726: x22+x36 <=1 
C727: x22+x37-y22_37 <=1 
C728: x22+x38 <=1 
C729: x22+x41-y22_41 <=1 
C730: x22+x42 <=1 
C731: x22+x44 <=1 
C732: x22+x45 <=1 
C733: x22+x46-y22_46 <=1 
C734: x22+x48 <=1 
C735: x22+x50-y22_50 <=1 
C736: x22+x51-y22_51 <=1 
C737: x22+x52-y22_52 <=1 
C738: x22+x53 <=1 
C739: x22+x54-y22_54 <=1 
C740: x22+x55 <=1 
C741: x22+x57-y22_57 <=1 
C742: x22+x58-y22_58 <=1 
C743: x22+x59-y22_59 <=1 
C744: x22+x61-y22_61 <=1 
C745: x22+x63 <=1 
C746: x22+x65 <=1 
C747: x22+x66 <=1 
C748: x23+x24-y23_24 <=1 
C749: x23+x25 <=1 
C750: x23+x26-y23_26 <=1 
C751: x23+x27 <=1 
C752: x23+x28 <=1 
C753: x23+x29 <=1 
C754: x23+x30-y23_30 <=1 
C755: x23+x31-y23_31 <=1 
C756: x23+x32 <=1 
C757: x23+x33-y23_33 <=1 
C758: x23+x34 <=1 
C759: x23+x35 <=1 
C760: x23+x37-y23_37 <=1 
C761: x23+x38 <=1 
C762: x23+x39 <=1 
C763: x23+x40 <=1 
C764: x23+x43-y23_43 <=1 
C765: x23+x44-y23_44 <=1 
C766: x23+x45 <=1 
C767: x23+x46 <=1 
C768: x23+x47 <=1 
C769: x23+x48-y23_48 <=1 
C770: x23+x49-y23_49 <=1 
C771: x23+x50 <=1 
C772: x23+x55-y23_55 <=1 
C773: x23+x56-y23_56 <=1 
C774: x23+x58-y23_58 <=1 
C775: x23+x59 <=1 
C776: x23+x60 <=1 
C777: x23+x61-y23_61 <=1 
C778: x23+x63-y23_63 <=1 
C779: x23+x64 <=1 
C780: x24+x26-y24_26 <=1 
C781: x24+x28-y24_28 <=1 
C782: x24+x29-y24_29 <=1 
C783: x24+x31 <=1 
C784: x24+x33 <=1 
C785: x24+x34 <=1 
C786: x24+x36-y24_36 <=1 
C787: x24+x37 <=1 
C788: x24+x39-y24_39 <=1 
C789: x24+x40-y24_40 <=1 
C790: x24+x41 <=1 
C791: x24+x44 <=1 
C792: x24+x45-y24_45 <=1 
C793: x24+x46-y24_46 <=1 
C794: x24+x48 <=1 
C795: x24+x50-y24_50 <=1 
C796: x24+x52-y24_52 <=1 
C797: x24+x53 <=1 
C798: x24+x58-y24_58 <=1 
C799: x24+x59 <=1 
C800: x24+x60 <=1 
C801: x24+x64 <=1 
C802: x24+x66 <=1 
C803: x25+x26-y25_26 <=1 
C804: x25+x27-y25_27 <=1 
C805: x25+x29 <=1 
C806: x25+x31-y25_31 <=1 
C807: x25+x34 <=1 
C808: x25+x35-y25_35 <=1 
C809: x25+x39-y25_39 <=1 
C810: x25+x41-y25_41 <=1 
C811: x25+x42 <=1 
C812: x25+x43 <=1 
C813: x25+x44 <=1 
C814: x25+x45-y25_45 <=1 
C815: x25+x46 <=1 
C816: x25+x47 <=1 
C817: x25+x48-y25_48 <=1 
C818: x25+x49 <=1 
C819: x25+x51 <=1 
C820: x25+x52-y25_52 <=1 
C821: x25+x53-y25_53 <=1 
C822: x25+x54-y25_54 <=1 
C823: x25+x55 <=1 
C824: x25+x56-y25_56 <=1 
C825: x25+x58-y25_58 <=1 
C826: x25+x59-y25_59 <=1 
C827: x25+x61 <=1 
C828: x25+x63 <=1 
C829: x25+x65 <=1 
C830: x25+x66-y25_66 <=1 
C831: x26+x27-y26_27 <=1 
C832: x26+x30-y26_30 <=1 
C833: x26+x31 <=1 
C834: x26+x32-y26_32 <=1 
C835: x26+x33 <=1 
C836: x26+x36 <=1 
C837: x26+x37-y26_37 <=1 
C838: x26+x38 <=1 
C839: x26+x39 <=1 
C840: x26+x40-y26_40 <=1 
C841: x26+x41-y26_41 <=1 
C842: x26+x42 <=1 
C843: x26+x43-y26_43 <=1 
C844: x26+x44 <=1 
C845: x26+x46-y26_46 <=1 
C846: x26+x47 <=1 
C847: x26+x49-y26_49 <=1 
C848: x26+x50-y26_50 <=1 
C849: x26+x51-y26_51 <=1 
C850: x26+x53-y26_53 <=1 
C851: x26+x54-y26_54 <=1 
C852: x26+x55-y26_55 <=1 
C853: x26+x58 <=1 
C854: x26+x60 <=1 
C855: x26+x62-y26_62 <=1 
C856: x26+x63 <=1 
C857: x26+x65 <=1 
C858: x26+x66 <=1 
C859: x27+x28-y27_28 <=1 
C860: x27+x29-y27_29 <=1 
C861: x27+x33 <=1 
C862: x27+x35-y27_35 <=1 
C863: x27+x36 <=1 
C864: x27+x37 <=1 
C865: x27+x38 <=1 
C866: x27+x39 <=1 
C867: x27+x40-y27_40 <=1 
C868: x27+x41 <=1 
C869: x27+x42 <=1 
C870: x27+x43 <=1 
C871: x27+x44-y27_44 <=1 
C872: x27+x46 <=1 
C873: x27+x48-y27_48 <=1 
C874: x27+x50 <=1 
C875: x27+x51 <=1 
C876: x27+x52-y27_52 <=1 
C877: x27+x53-y27_53 <=1 
C878: x27+x54 <=1 
C879: x27+x55-y27_55 <=1 
C880: x27+x58 <=1 
C881: x27+x60-y27_60 <=1 
C882: x27+x66-y27_66 <=1 
C883: x28+x29 <=1 
C884: x28+x30 <=1 
C885: x28+x32 <=1 
C886: x28+x34 <=1 
C887: x28+x35 <=1 
C888: x28+x36-y28_36 <=1 
C889: x28+x37 <=1 
C890: x28+x38-y28_38 <=1 
C891: x28+x39 <=1 
C892: x28+x40 <=1 
C893: x28+x42 <=1 
C894: x28+x43 <=1 
C895: x28+x44-y28_44 <=1 
C896: x28+x46-y28_46 <=1 
C897: x28+x47 <=1 
C898: x28+x48-y28_48 <=1 
C899: x28+x49-y28_49 <=1 
C900: x28+x50 <=1 
C901: x28+x51 <=1 
C902: x28+x52-y28_52 <=1 
C903: x28+x53-y28_53 <=1 
C904: x28+x54-y28_54 <=1 
C905: x28+x57 <=1 
C906: x28+x60-y28_60 <=1 
C907: x28+x62-y28_62 <=1 
C908: x28+x63 <=1 
C909: x28+x64 <=1 
C910: x29+x34 <=1 
C911: x29+x36 <=1 
C912: x29+x37 <=1 
C913: x29+x38-y29_38 <=1 
C914: x29+x39-y29_39 <=1 
C915: x29+x40-y29_40 <=1 
C916: x29+x42-y29_42 <=1 
C917: x29+x43 <=1 
C918: x29+x44-y29_44 <=1 
C919: x29+x45 <=1 
C920: x29+x46 <=1 
C921: x29+x47-y29_47 <=1 
C922: x29+x48 <=1 
C923: x29+x49 <=1 
C924: x29+x51-y29_51 <=1 
C925: x29+x53 <=1 
C926: x29+x55-y29_55 <=1 
C927: x29+x56-y29_56 <=1 
C928: x29+x57-y29_57 <=1 
C929: x29+x58-y29_58 <=1 
C930: x29+x59-y29_59 <=1 
C931: x29+x60-y29_60 <=1 
C932: x29+x61 <=1 
C933: x29+x63 <=1 
C934: x29+x65-y29_65 <=1 
C935: x30+x31 <=1 
C936: x30+x32 <=1 
C937: x30+x35-y30_35 <=1 
C938: x30+x39-y30_39 <=1 
C939: x30+x41 <=1 
C940: x30+x43 <=1 
C941: x30+x44-y30_44 <=1 
C942: x30+x45-y30_45 <=1 
C943: x30+x46 <=1 
C944: x30+x47 <=1 
C945: x30+x49-y30_49 <=1 
C946: x30+x50-y30_50 <=1 
C947: x30+x51 <=1 
C948: x30+x52-y30_52 <=1 
C949: x30+x53-y30_53 <=1 
C950: x30+x54 <=1 
C951: x30+x55 <=1 
C952: x30+x57-y30_57 <=1 
C953: x30+x59-y30_59 <=1 
C954: x30+x60-y30_60 <=1 
C955: x30+x62-y30_62 <=1 
C956: x30+x64-y30_64 <=1 
C957: x30+x65 <=1 
C958: x30+x66 <=1 
C959: x31+x33 <=1 
C960: x31+x34-y31_34 <=1 
C961: x31+x35-y31_35 <=1 
C962: x31+x36-y31_36 <=1 
C963: x31+x38 <=1 
C964: x31+x41 <=1 
C965: x31+x42-y31_42 <=1 
C966: x31+x44-y31_44 <=1 
C967: x31+x45 <=1 
C968: x31+x46 <=1 
C969: x31+x47-y31_47 <=1 
C970: x31+x48 <=1 
C971: x31+x50-y31_50 <=1 
C972: x31+x52 <=1 
C973: x31+x54-y31_54 <=1 
C974: x31+x55-y31_55 <=1 
C975: x31+x57 <=1 
C976: x31+x62 <=1 
C977: x31+x63 <=1 
C978: x31+x64 <=1 
C979: x31+x65 <=1 
C980: x32+x34 <=1 
C981: x32+x36 <=1 
C982: x32+x37-y32_37 <=1 
C983: x32+x38 <=1 
C984: x32+x40 <=1 
C985: x32+x41-y32_41 <=1 
C986: x32+x42-y32_42 <=1 
C987: x32+x44-y32_44 <=1 
C988: x32+x45 <=1 
C989: x32+x46-y32_46 <=1 
C990: x32+x48-y32_48 <=1 
C991: x32+x50-y32_50 <=1 
C992: x32+x51-y32_51 <=1 
C993: x32+x52 <=1 
C994: x32+x53 <=1 
C995: x32+x56 <=1 
C996: x32+x57-y32_57 <=1 
C997: x32+x58 <=1 
C998: x32+x60-y32_60 <=1 
C999: x32+x64-y32_64 <=1 
C1000: x32+x66 <=1 
C1001: x33+x34 <=1 
C1002: x33+x35-y33_35 <=1 
C1003: x33+x36 <=1 
C1004: x33+x37 <=1 
C1005: x33+x38 <=1 
C1006: x33+x40 <=1 
C1007: x33+x43 <=1 
C1008: x33+x44 <=1 
C1009: x33+x46-y33_46 <=1 
C1010: x33+x47 <=1 
C1011: x33+x48 <=1 
C1012: x33+x49-y33_49 <=1 
C1013: x33+x50-y33_50 <=1 
C1014: x33+x51 <=1 
C1015: x33+x54-y33_54 <=1 
C1016: x33+x55 <=1 
C1017: x33+x56-y33_56 <=1 
C1018: x33+x57-y33_57 <=1 
C1019: x33+x58-y33_58 <=1 
C1020: x33+x59-y33_59 <=1 
C1021: x33+x60-y33_60 <=1 
C1022: x33+x61-y33_61 <=1 
C1023: x33+x62-y33_62 <=1 
C1024: x33+x65-y33_65 <=1 
C1025: x33+x66 <=1 
C1026: x34+x37 <=1 
C1027: x34+x39-y34_39 <=1 
C1028: x34+x40 <=1 
C1029: x34+x41 <=1 
C1030: x34+x42 <=1 
C1031: x34+x43 <=1 
C1032: x34+x44 <=1 
C1033: x34+x46-y34_46 <=1 
C1034: x34+x47 <=1 
C1035: x34+x51 <=1 
C1036: x34+x52 <=1 
C1037: x34+x53 <=1 
C1038: x34+x54-y34_54 <=1 
C1039: x34+x56 <=1 
C1040: x34+x57-y34_57 <=1 
C1041: x34+x58-y34_58 <=1 
C1042: x34+x62 <=1 
C1043: x34+x63 <=1 
C1044: x34+x64 <=1 
C1045: x34+x65-y34_65 <=1 
C1046: x34+x66-y34_66 <=1 
C1047: x35+x36 <=1 
C1048: x35+x37 <=1 
C1049: x35+x40 <=1 
C1050: x35+x41 <=1 
C1051: x35+x42 <=1 
C1052: x35+x45-y35_45 <=1 
C1053: x35+x48 <=1 
C1054: x35+x49 <=1 
C1055: x35+x50-y35_50 <=1 
C1056: x35+x51 <=1 
C1057: x35+x52 <=1 
C1058: x35+x53 <=1 
C1059: x35+x56 <=1 
C1060: x35+x57 <=1 
C1061: x35+x58 <=1 
C1062: x35+x61 <=1 
C1063: x35+x64 <=1 
C1064: x35+x66-y35_66 <=1 
C1065: x36+x37 <=1 
C1066: x36+x38 <=1 
C1067: x36+x39-y36_39 <=1 
C1068: x36+x41 <=1 
C1069: x36+x43 <=1 
C1070: x36+x44 <=1 
C1071: x36+x47 <=1 
C1072: x36+x48-y36_48 <=1 
C1073: x36+x50-y36_50 <=1 
C1074: x36+x51 <=1 
C1075: x36+x52 <=1 
C1076: x36+x53-y36_53 <=1 
C1077: x36+x55-y36_55 <=1 
C1078: x36+x58 <=1 
C1079: x36+x61 <=1 
C1080: x36+x62-y36_62 <=1 
C1081: x36+x63-y36_63 <=1 
C1082: x36+x64 <=1 
C1083: x36+x65 <=1 
C1084: x37+x38 <=1 
C1085: x37+x41-y37_41 <=1 
C1086: x37+x42-y37_42 <=1 
C1087: x37+x43-y37_43 <=1 
C1088: x37+x44 <=1 
C1089: x37+x45-y37_45 <=1 
C1090: x37+x50 <=1 
C1091: x37+x51-y37_51 <=1 
C1092: x37+x53 <=1 
C1093: x37+x54-y37_54 <=1 
C1094: x37+x56-y37_56 <=1 
C1095: x37+x57 <=1 
C1096: x37+x58 <=1 
C1097: x37+x59-y37_59 <=1 
C1098: x37+x60 <=1 
C1099: x37+x62-y37_62 <=1 
C1100: x37+x63 <=1 
C1101: x37+x65 <=1 
C1102: x37+x66-y37_66 <=1 
C1103: x38+x39-y38_39 <=1 
C1104: x38+x40 <=1 
C1105: x38+x44-y38_44 <=1 
C1106: x38+x47-y38_47 <=1 
C1107: x38+x48-y38_48 <=1 
C1108: x38+x50-y38_50 <=1 
C1109: x38+x51-y38_51 <=1 
C1110: x38+x52 <=1 
C1111: x38+x53 <=1 
C1112: x38+x54-y38_54 <=1 
C1113: x38+x55 <=1 
C1114: x38+x57-y38_57 <=1 
C1115: x38+x64-y38_64 <=1 
C1116: x38+x66-y38_66 <=1 
C1117: x39+x40-y39_40 <=1 
C1118: x39+x41-y39_41 <=1 
C1119: x39+x42-y39_42 <=1 
C1120: x39+x44 <=1 
C1121: x39+x45-y39_45 <=1 
C1122: x39+x49-y39_49 <=1 
C1123: x39+x50 <=1 
C1124: x39+x51 <=1 
C1125: x39+x52 <=1 
C1126: x39+x55-y39_55 <=1 
C1127: x39+x56-y39_56 <=1 
C1128: x39+x57 <=1 
C1129: x39+x61 <=1 
C1130: x39+x62-y39_62 <=1 
C1131: x39+x63-y39_63 <=1 
C1132: x39+x64-y39_64 <=1 
C1133: x39+x65-y39_65 <=1 
C1134: x39+x66-y39_66 <=1 
C1135: x40+x41-y40_41 <=1 
C1136: x40+x43 <=1 
C1137: x40+x44 <=1 
C1138: x40+x45-y40_45 <=1 
C1139: x40+x46-y40_46 <=1 
C1140: x40+x47 <=1 
C1141: x40+x48 <=1 
C1142: x40+x49 <=1 
C1143: x40+x50-y40_50 <=1 
C1144: x40+x52-y40_52 <=1 
C1145: x40+x53 <=1 
C1146: x40+x55-y40_55 <=1 
C1147: x40+x57-y40_57 <=1 
C1148: x40+x62-y40_62 <=1 
C1149: x40+x64-y40_64 <=1 
C1150: x40+x66-y40_66 <=1 
C1151: x41+x42 <=1 
C1152: x41+x43 <=1 
C1153: x41+x44-y41_44 <=1 
C1154: x41+x46 <=1 
C1155: x41+x47 <=1 
C1156: x41+x48-y41_48 <=1 
C1157: x41+x50-y41_50 <=1 
C1158: x41+x51-y41_51 <=1 
C1159: x41+x52 <=1 
C1160: x41+x53-y41_53 <=1 
C1161: x41+x55 <=1 
C1162: x41+x57 <=1 
C1163: x41+x58-y41_58 <=1 
C1164: x41+x60-y41_60 <=1 
C1165: x41+x62-y41_62 <=1 
C1166: x41+x64 <=1 
C1167: x41+x66-y41_66 <=1 
C1168: x42+x43-y42_43 <=1 
C1169: x42+x45 <=1 
C1170: x42+x46-y42_46 <=1 
C1171: x42+x47-y42_47 <=1 
C1172: x42+x49 <=1 
C1173: x42+x50 <=1 
C1174: x42+x52 <=1 
C1175: x42+x53-y42_53 <=1 
C1176: x42+x54-y42_54 <=1 
C1177: x42+x55 <=1 
C1178: x42+x56-y42_56 <=1 
C1179: x42+x58-y42_58 <=1 
C1180: x42+x59 <=1 
C1181: x42+x61-y42_61 <=1 
C1182: x42+x66 <=1 
C1183: x43+x45-y43_45 <=1 
C1184: x43+x46 <=1 
C1185: x43+x47 <=1 
C1186: x43+x48 <=1 
C1187: x43+x49 <=1 
C1188: x43+x51-y43_51 <=1 
C1189: x43+x52 <=1 
C1190: x43+x53-y43_53 <=1 
C1191: x43+x54 <=1 
C1192: x43+x55 <=1 
C1193: x43+x56-y43_56 <=1 
C1194: x43+x58 <=1 
C1195: x43+x60 <=1 
C1196: x43+x61-y43_61 <=1 
C1197: x43+x62 <=1 
C1198: x43+x64-y43_64 <=1 
C1199: x44+x45 <=1 
C1200: x44+x48 <=1 
C1201: x44+x49 <=1 
C1202: x44+x50 <=1 
C1203: x44+x52 <=1 
C1204: x44+x53-y44_53 <=1 
C1205: x44+x54 <=1 
C1206: x44+x57-y44_57 <=1 
C1207: x44+x59 <=1 
C1208: x44+x60 <=1 
C1209: x44+x61 <=1 
C1210: x44+x62 <=1 
C1211: x44+x63-y44_63 <=1 
C1212: x44+x64-y44_64 <=1 
C1213: x44+x65-y44_65 <=1 
C1214: x44+x66-y44_66 <=1 
C1215: x45+x46-y45_46 <=1 
C1216: x45+x47-y45_47 <=1 
C1217: x45+x49-y45_49 <=1 
C1218: x45+x50 <=1 
C1219: x45+x52 <=1 
C1220: x45+x53-y45_53 <=1 
C1221: x45+x54 <=1 
C1222: x45+x55-y45_55 <=1 
C1223: x45+x56 <=1 
C1224: x45+x58-y45_58 <=1 
C1225: x45+x59-y45_59 <=1 
C1226: x45+x60-y45_60 <=1 
C1227: x45+x62-y45_62 <=1 
C1228: x45+x63 <=1 
C1229: x45+x64 <=1 
C1230: x46+x48 <=1 
C1231: x46+x49-y46_49 <=1 
C1232: x46+x50 <=1 
C1233: x46+x51 <=1 
C1234: x46+x53-y46_53 <=1 
C1235: x46+x56 <=1 
C1236: x46+x57 <=1 
C1237: x46+x58-y46_58 <=1 
C1238: x46+x60-y46_60 <=1 
C1239: x46+x63 <=1 
C1240: x46+x65-y46_65 <=1 
C1241: x47+x48-y47_48 <=1 
C1242: x47+x49-y47_49 <=1 
C1243: x47+x50 <=1 
C1244: x47+x51 <=1 
C1245: x47+x52 <=1 
C1246: x47+x54-y47_54 <=1 
C1247: x47+x55 <=1 
C1248: x47+x56-y47_56 <=1 
C1249: x47+x58 <=1 
C1250: x47+x59 <=1 
C1251: x47+x62 <=1 
C1252: x47+x64-y47_64 <=1 
C1253: x47+x65 <=1 
C1254: x47+x66 <=1 
C1255: x48+x49 <=1 
C1256: x48+x50 <=1 
C1257: x48+x51 <=1 
C1258: x48+x52-y48_52 <=1 
C1259: x48+x54-y48_54 <=1 
C1260: x48+x55-y48_55 <=1 
C1261: x48+x56 <=1 
C1262: x48+x57-y48_57 <=1 
C1263: x48+x58 <=1 
C1264: x48+x62-y48_62 <=1 
C1265: x48+x64-y48_64 <=1 
C1266: x49+x50-y49_50 <=1 
C1267: x49+x52-y49_52 <=1 
C1268: x49+x53 <=1 
C1269: x49+x54-y49_54 <=1 
C1270: x49+x55 <=1 
C1271: x49+x56 <=1 
C1272: x49+x59 <=1 
C1273: x49+x61 <=1 
C1274: x49+x63-y49_63 <=1 
C1275: x49+x64-y49_64 <=1 
C1276: x49+x65-y49_65 <=1 
C1277: x50+x51-y50_51 <=1 
C1278: x50+x53-y50_53 <=1 
C1279: x50+x54 <=1 
C1280: x50+x55 <=1 
C1281: x50+x56-y50_56 <=1 
C1282: x50+x61-y50_61 <=1 
C1283: x50+x63 <=1 
C1284: x50+x64-y50_64 <=1 
C1285: x50+x65 <=1 
C1286: x51+x52 <=1 
C1287: x51+x54-y51_54 <=1 
C1288: x51+x55 <=1 
C1289: x51+x57 <=1 
C1290: x51+x58-y51_58 <=1 
C1291: x51+x59 <=1 
C1292: x51+x60 <=1 
C1293: x51+x61 <=1 
C1294: x51+x62-y51_62 <=1 
C1295: x51+x64 <=1 
C1296: x51+x66 <=1 
C1297: x52+x53 <=1 
C1298: x52+x56-y52_56 <=1 
C1299: x52+x59-y52_59 <=1 
C1300: x52+x60 <=1 
C1301: x52+x61 <=1 
C1302: x52+x63-y52_63 <=1 
C1303: x52+x64-y52_64 <=1 
C1304: x52+x65 <=1 
C1305: x52+x66-y52_66 <=1 
C1306: x53+x55 <=1 
C1307: x53+x56 <=1 
C1308: x53+x57-y53_57 <=1 
C1309: x53+x58-y53_58 <=1 
C1310: x53+x59-y53_59 <=1 
C1311: x53+x60 <=1 
C1312: x53+x61-y53_61 <=1 
C1313: x53+x62-y53_62 <=1 
C1314: x53+x64 <=1 
C1315: x53+x66-y53_66 <=1 
C1316: x54+x55-y54_55 <=1 
C1317: x54+x57-y54_57 <=1 
C1318: x54+x58-y54_58 <=1 
C1319: x54+x60-y54_60 <=1 
C1320: x54+x61-y54_61 <=1 
C1321: x54+x62-y54_62 <=1 
C1322: x54+x65-y54_65 <=1 
C1323: x54+x66-y54_66 <=1 
C1324: x55+x62-y55_62 <=1 
C1325: x55+x66 <=1 
C1326: x56+x59-y56_59 <=1 
C1327: x56+x60-y56_60 <=1 
C1328: x56+x63 <=1 
C1329: x56+x64 <=1 
C1330: x56+x65 <=1 
C1331: x56+x66 <=1 
C1332: x57+x63-y57_63 <=1 
C1333: x57+x66 <=1 
C1334: x58+x60 <=1 
C1335: x58+x61 <=1 
C1336: x58+x62-y58_62 <=1 
C1337: x58+x63-y58_63 <=1 
C1338: x58+x64-y58_64 <=1 
C1339: x58+x65 <=1 
C1340: x58+x66-y58_66 <=1 
C1341: x59+x62-y59_62 <=1 
C1342: x59+x65 <=1 
C1343: x59+x66 <=1 
C1344: x60+x61 <=1 
C1345: x60+x63 <=1 
C1346: x60+x64-y60_64 <=1 
C1347: x60+x65 <=1 
C1348: x60+x66 <=1 
C1349: x61+x63 <=1 
C1350: x61+x64-y61_64 <=1 
C1351: x61+x66 <=1 
C1352: x62+x63 <=1 
C1353: x62+x65 <=1 
C1354: x63+x64 <=1 
C1355: x63+x66 <=1 
C1356: x64+x65-y64_65 <=1 
C1357: x65+x66-y65_66 <=1 

binary
x0
x1
x2
x3
x4
x5
x6
x7
x8
x9
x10
x11
x12
x13
x14
x15
x16
x17
x18
x19
x20
x21
x22
x23
x24
x25
x26
x27
x28
x29
x30
x31
x32
x33
x34
x35
x36
x37
x38
x39
x40
x41
x42
x43
x44
x45
x46
x47
x48
x49
x50
x51
x52
x53
x54
x55
x56
x57
x58
x59
x60
x61
x62
x63
x64
x65
x66
