problem_generation/data/GISP/train/er_n=67_m=1357_p=0.60_SET2_setparam=100.00_alpha=0.50_553.sol
objective value:                                 1277
x4                                                  1 	(obj:100)
x10                                                 1 	(obj:100)
x17                                                 1 	(obj:100)
x26                                                 1 	(obj:100)
x27                                                 1 	(obj:100)
x32                                                 1 	(obj:100)
x48                                                 1 	(obj:100)
x55                                                 1 	(obj:100)
x57                                                 1 	(obj:100)
x59                                                 1 	(obj:100)
x61                                                 1 	(obj:100)
x62                                                 1 	(obj:100)
x64                                                 1 	(obj:100)
y32_64                                              1 	(obj:-1)
y17_57                                              1 	(obj:-1)
y27_55                                              1 	(obj:-1)
y4_48                                               1 	(obj:-1)
y26_62                                              1 	(obj:-1)
y4_61                                               1 	(obj:-1)
y48_62                                              1 	(obj:-1)
y48_57                                              1 	(obj:-1)
y10_48                                              1 	(obj:-1)
y59_62                                              1 	(obj:-1)
y26_32                                              1 	(obj:-1)
y32_48                                              1 	(obj:-1)
y32_57                                              1 	(obj:-1)
y61_64                                              1 	(obj:-1)
y27_48                                              1 	(obj:-1)
y4_32                                               1 	(obj:-1)
y26_55                                              1 	(obj:-1)
y26_27                                              1 	(obj:-1)
y48_55                                              1 	(obj:-1)
y48_64                                              1 	(obj:-1)
y10_55                                              1 	(obj:-1)
y10_64                                              1 	(obj:-1)
y55_62                                              1 	(obj:-1)
